p cnf 20 12
r 0.645 20 0
e 10 0
r 0.203 19 0
e 9 0
r 0.598 18 0
e 8 0
r 0.531 17 0
e 7 0
r 0.676 16 0
e 6 0
r 0.981 15 0
e 5 0
r 0.786 14 0
e 4 0
r 0.356 13 0
e 3 0
r 0.439 12 0
e 2 0
r 0.278 11 0
e 1 0
-10 0
10 19 -9 -18 -8 0
9 18 -8 -17 -7 0
8 17 -7 -16 -6 0
7 16 -6 -15 -5 0
6 15 -5 -14 -4 0
5 14 -4 -13 -3 0
4 13 -3 -12 -2 0
3 12 -2 -11 -1 0
2 1 0
2 -1 0
-2 1 0
